VER
4

OBJSENSE
MIN


QKDCONES
1 104
8 1 96 48 0
0 0 0 1.0
0 1 1 1.0
0 3 3 1.0
0 4 4 1.0
0 60 12 1.0
0 61 13 1.0
0 63 15 1.0
0 64 16 1.0
96 2 96 96 0
0 0 0 1.0
0 1 1 1.0
0 2 2 1.0
0 3 3 1.0
0 4 4 1.0
0 5 5 1.0
0 6 6 1.0
0 7 7 1.0
0 8 8 1.0
0 9 9 1.0
0 10 10 1.0
0 11 11 1.0
0 12 12 1.0
0 13 13 1.0
0 14 14 1.0
0 15 15 1.0
0 16 16 1.0
0 17 17 1.0
0 18 18 1.0
0 19 19 1.0
0 20 20 1.0
0 21 21 1.0
0 22 22 1.0
0 23 23 1.0
0 24 24 1.0
0 25 25 1.0
0 26 26 1.0
0 27 27 1.0
0 28 28 1.0
0 29 29 1.0
0 30 30 1.0
0 31 31 1.0
0 32 32 1.0
0 33 33 1.0
0 34 34 1.0
0 35 35 1.0
0 36 36 1.0
0 37 37 1.0
0 38 38 1.0
0 39 39 1.0
0 40 40 1.0
0 41 41 1.0
0 42 42 1.0
0 43 43 1.0
0 44 44 1.0
0 45 45 1.0
0 46 46 1.0
0 47 47 1.0
1 48 48 1.0
1 49 49 1.0
1 50 50 1.0
1 51 51 1.0
1 52 52 1.0
1 53 53 1.0
1 54 54 1.0
1 55 55 1.0
1 56 56 1.0
1 57 57 1.0
1 58 58 1.0
1 59 59 1.0
1 60 60 1.0
1 61 61 1.0
1 62 62 1.0
1 63 63 1.0
1 64 64 1.0
1 65 65 1.0
1 66 66 1.0
1 67 67 1.0
1 68 68 1.0
1 69 69 1.0
1 70 70 1.0
1 71 71 1.0
1 72 72 1.0
1 73 73 1.0
1 74 74 1.0
1 75 75 1.0
1 76 76 1.0
1 77 77 1.0
1 78 78 1.0
1 79 79 1.0
1 80 80 1.0
1 81 81 1.0
1 82 82 1.0
1 83 83 1.0
1 84 84 1.0
1 85 85 1.0
1 86 86 1.0
1 87 87 1.0
1 88 88 1.0
1 89 89 1.0
1 90 90 1.0
1 91 91 1.0
1 92 92 1.0
1 93 93 1.0
1 94 94 1.0
1 95 95 1.0

VAR
2305 1
@0:HVECQKD 2305

CON
305 1
L= 305

OBJACOORD
1
0 1.0

ACOORD
864
0 1 1.0
0 4 1.0
0 9 1.0
1 10 1.0
1 19 1.0
1 30 1.0
2 37 1.0
2 52 1.0
2 69 1.0
3 82 1.0
3 103 1.0
3 126 1.0
4 145 1.0
4 172 1.0
4 201 1.0
5 226 1.0
5 259 1.0
5 294 1.0
6 325 1.0
6 364 1.0
6 405 1.0
7 442 1.0
7 487 1.0
7 534 1.0
8 577 1.0
8 628 1.0
8 681 1.0
9 730 1.0
9 787 1.0
9 846 1.0
10 901 1.0
10 964 1.0
10 1029 1.0
11 1090 1.0
11 1159 1.0
11 1230 1.0
12 1297 1.0
12 1372 1.0
12 1449 1.0
13 1522 1.0
13 1603 1.0
13 1686 1.0
14 1765 1.0
14 1852 1.0
14 1941 1.0
15 2026 1.0
15 2119 1.0
15 2214 1.0
16 11 -1.0
16 20 -1.0
16 31 -1.0
17 16 1.0
17 25 1.0
17 36 1.0
18 43 1.0
18 58 1.0
18 75 1.0
19 88 1.0
19 109 1.0
19 132 1.0
20 151 1.0
20 178 1.0
20 207 1.0
21 232 1.0
21 265 1.0
21 300 1.0
22 331 1.0
22 370 1.0
22 411 1.0
23 448 1.0
23 493 1.0
23 540 1.0
24 583 1.0
24 634 1.0
24 687 1.0
25 736 1.0
25 793 1.0
25 852 1.0
26 907 1.0
26 970 1.0
26 1035 1.0
27 1096 1.0
27 1165 1.0
27 1236 1.0
28 1303 1.0
28 1378 1.0
28 1455 1.0
29 1528 1.0
29 1609 1.0
29 1692 1.0
30 1771 1.0
30 1858 1.0
30 1947 1.0
31 2032 1.0
31 2125 1.0
31 2220 1.0
32 38 -1.0
32 53 -1.0
32 70 -1.0
33 44 -1.0
33 59 -1.0
33 76 -1.0
34 49 1.0
34 64 1.0
34 81 1.0
35 94 1.0
35 115 1.0
35 138 1.0
36 157 1.0
36 184 1.0
36 213 1.0
37 238 1.0
37 271 1.0
37 306 1.0
38 337 1.0
38 376 1.0
38 417 1.0
39 454 1.0
39 499 1.0
39 546 1.0
40 589 1.0
40 640 1.0
40 693 1.0
41 742 1.0
41 799 1.0
41 858 1.0
42 913 1.0
42 976 1.0
42 1041 1.0
43 1102 1.0
43 1171 1.0
43 1242 1.0
44 1309 1.0
44 1384 1.0
44 1461 1.0
45 1534 1.0
45 1615 1.0
45 1698 1.0
46 1777 1.0
46 1864 1.0
46 1953 1.0
47 2038 1.0
47 2131 1.0
47 2226 1.0
48 83 -1.0
48 104 -1.0
48 127 -1.0
49 89 -1.0
49 110 -1.0
49 133 -1.0
50 95 -1.0
50 116 -1.0
50 139 -1.0
51 100 1.0
51 121 1.0
51 144 1.0
52 163 1.0
52 190 1.0
52 219 1.0
53 244 1.0
53 277 1.0
53 312 1.0
54 343 1.0
54 382 1.0
54 423 1.0
55 460 1.0
55 505 1.0
55 552 1.0
56 595 1.0
56 646 1.0
56 699 1.0
57 748 1.0
57 805 1.0
57 864 1.0
58 919 1.0
58 982 1.0
58 1047 1.0
59 1108 1.0
59 1177 1.0
59 1248 1.0
60 1315 1.0
60 1390 1.0
60 1467 1.0
61 1540 1.0
61 1621 1.0
61 1704 1.0
62 1783 1.0
62 1870 1.0
62 1959 1.0
63 2044 1.0
63 2137 1.0
63 2232 1.0
64 146 -1.0
64 173 -1.0
64 202 -1.0
65 152 -1.0
65 179 -1.0
65 208 -1.0
66 158 -1.0
66 185 -1.0
66 214 -1.0
67 164 -1.0
67 191 -1.0
67 220 -1.0
68 169 1.0
68 196 1.0
68 225 1.0
69 250 1.0
69 283 1.0
69 318 1.0
70 349 1.0
70 388 1.0
70 429 1.0
71 466 1.0
71 511 1.0
71 558 1.0
72 601 1.0
72 652 1.0
72 705 1.0
73 754 1.0
73 811 1.0
73 870 1.0
74 925 1.0
74 988 1.0
74 1053 1.0
75 1114 1.0
75 1183 1.0
75 1254 1.0
76 1321 1.0
76 1396 1.0
76 1473 1.0
77 1546 1.0
77 1627 1.0
77 1710 1.0
78 1789 1.0
78 1876 1.0
78 1965 1.0
79 2050 1.0
79 2143 1.0
79 2238 1.0
80 227 -1.0
80 260 -1.0
80 295 -1.0
81 233 -1.0
81 266 -1.0
81 301 -1.0
82 239 -1.0
82 272 -1.0
82 307 -1.0
83 245 -1.0
83 278 -1.0
83 313 -1.0
84 251 -1.0
84 284 -1.0
84 319 -1.0
85 256 1.0
85 289 1.0
85 324 1.0
86 355 1.0
86 394 1.0
86 435 1.0
87 472 1.0
87 517 1.0
87 564 1.0
88 607 1.0
88 658 1.0
88 711 1.0
89 760 1.0
89 817 1.0
89 876 1.0
90 931 1.0
90 994 1.0
90 1059 1.0
91 1120 1.0
91 1189 1.0
91 1260 1.0
92 1327 1.0
92 1402 1.0
92 1479 1.0
93 1552 1.0
93 1633 1.0
93 1716 1.0
94 1795 1.0
94 1882 1.0
94 1971 1.0
95 2056 1.0
95 2149 1.0
95 2244 1.0
96 326 -1.0
96 365 -1.0
96 406 -1.0
97 332 -1.0
97 371 -1.0
97 412 -1.0
98 338 -1.0
98 377 -1.0
98 418 -1.0
99 344 -1.0
99 383 -1.0
99 424 -1.0
100 350 -1.0
100 389 -1.0
100 430 -1.0
101 356 -1.0
101 395 -1.0
101 436 -1.0
102 361 1.0
102 400 1.0
102 441 1.0
103 478 1.0
103 523 1.0
103 570 1.0
104 613 1.0
104 664 1.0
104 717 1.0
105 766 1.0
105 823 1.0
105 882 1.0
106 937 1.0
106 1000 1.0
106 1065 1.0
107 1126 1.0
107 1195 1.0
107 1266 1.0
108 1333 1.0
108 1408 1.0
108 1485 1.0
109 1558 1.0
109 1639 1.0
109 1722 1.0
110 1801 1.0
110 1888 1.0
110 1977 1.0
111 2062 1.0
111 2155 1.0
111 2250 1.0
112 443 -1.0
112 488 -1.0
112 535 -1.0
113 449 -1.0
113 494 -1.0
113 541 -1.0
114 455 -1.0
114 500 -1.0
114 547 -1.0
115 461 -1.0
115 506 -1.0
115 553 -1.0
116 467 -1.0
116 512 -1.0
116 559 -1.0
117 473 -1.0
117 518 -1.0
117 565 -1.0
118 479 -1.0
118 524 -1.0
118 571 -1.0
119 484 1.0
119 529 1.0
119 576 1.0
120 619 1.0
120 670 1.0
120 723 1.0
121 772 1.0
121 829 1.0
121 888 1.0
122 943 1.0
122 1006 1.0
122 1071 1.0
123 1132 1.0
123 1201 1.0
123 1272 1.0
124 1339 1.0
124 1414 1.0
124 1491 1.0
125 1564 1.0
125 1645 1.0
125 1728 1.0
126 1807 1.0
126 1894 1.0
126 1983 1.0
127 2068 1.0
127 2161 1.0
127 2256 1.0
128 578 -1.0
128 629 -1.0
128 682 -1.0
129 584 -1.0
129 635 -1.0
129 688 -1.0
130 590 -1.0
130 641 -1.0
130 694 -1.0
131 596 -1.0
131 647 -1.0
131 700 -1.0
132 602 -1.0
132 653 -1.0
132 706 -1.0
133 608 -1.0
133 659 -1.0
133 712 -1.0
134 614 -1.0
134 665 -1.0
134 718 -1.0
135 620 -1.0
135 671 -1.0
135 724 -1.0
136 625 1.0
136 676 1.0
136 729 1.0
137 778 1.0
137 835 1.0
137 894 1.0
138 949 1.0
138 1012 1.0
138 1077 1.0
139 1138 1.0
139 1207 1.0
139 1278 1.0
140 1345 1.0
140 1420 1.0
140 1497 1.0
141 1570 1.0
141 1651 1.0
141 1734 1.0
142 1813 1.0
142 1900 1.0
142 1989 1.0
143 2074 1.0
143 2167 1.0
143 2262 1.0
144 731 -1.0
144 788 -1.0
144 847 -1.0
145 737 -1.0
145 794 -1.0
145 853 -1.0
146 743 -1.0
146 800 -1.0
146 859 -1.0
147 749 -1.0
147 806 -1.0
147 865 -1.0
148 755 -1.0
148 812 -1.0
148 871 -1.0
149 761 -1.0
149 818 -1.0
149 877 -1.0
150 767 -1.0
150 824 -1.0
150 883 -1.0
151 773 -1.0
151 830 -1.0
151 889 -1.0
152 779 -1.0
152 836 -1.0
152 895 -1.0
153 784 1.0
153 841 1.0
153 900 1.0
154 955 1.0
154 1018 1.0
154 1083 1.0
155 1144 1.0
155 1213 1.0
155 1284 1.0
156 1351 1.0
156 1426 1.0
156 1503 1.0
157 1576 1.0
157 1657 1.0
157 1740 1.0
158 1819 1.0
158 1906 1.0
158 1995 1.0
159 2080 1.0
159 2173 1.0
159 2268 1.0
160 902 -1.0
160 965 -1.0
160 1030 -1.0
161 908 -1.0
161 971 -1.0
161 1036 -1.0
162 914 -1.0
162 977 -1.0
162 1042 -1.0
163 920 -1.0
163 983 -1.0
163 1048 -1.0
164 926 -1.0
164 989 -1.0
164 1054 -1.0
165 932 -1.0
165 995 -1.0
165 1060 -1.0
166 938 -1.0
166 1001 -1.0
166 1066 -1.0
167 944 -1.0
167 1007 -1.0
167 1072 -1.0
168 950 -1.0
168 1013 -1.0
168 1078 -1.0
169 956 -1.0
169 1019 -1.0
169 1084 -1.0
170 961 1.0
170 1024 1.0
170 1089 1.0
171 1150 1.0
171 1219 1.0
171 1290 1.0
172 1357 1.0
172 1432 1.0
172 1509 1.0
173 1582 1.0
173 1663 1.0
173 1746 1.0
174 1825 1.0
174 1912 1.0
174 2001 1.0
175 2086 1.0
175 2179 1.0
175 2274 1.0
176 1091 -1.0
176 1160 -1.0
176 1231 -1.0
177 1097 -1.0
177 1166 -1.0
177 1237 -1.0
178 1103 -1.0
178 1172 -1.0
178 1243 -1.0
179 1109 -1.0
179 1178 -1.0
179 1249 -1.0
180 1115 -1.0
180 1184 -1.0
180 1255 -1.0
181 1121 -1.0
181 1190 -1.0
181 1261 -1.0
182 1127 -1.0
182 1196 -1.0
182 1267 -1.0
183 1133 -1.0
183 1202 -1.0
183 1273 -1.0
184 1139 -1.0
184 1208 -1.0
184 1279 -1.0
185 1145 -1.0
185 1214 -1.0
185 1285 -1.0
186 1151 -1.0
186 1220 -1.0
186 1291 -1.0
187 1156 1.0
187 1225 1.0
187 1296 1.0
188 1363 1.0
188 1438 1.0
188 1515 1.0
189 1588 1.0
189 1669 1.0
189 1752 1.0
190 1831 1.0
190 1918 1.0
190 2007 1.0
191 2092 1.0
191 2185 1.0
191 2280 1.0
192 1298 -1.0
192 1373 -1.0
192 1450 -1.0
193 1304 -1.0
193 1379 -1.0
193 1456 -1.0
194 1310 -1.0
194 1385 -1.0
194 1462 -1.0
195 1316 -1.0
195 1391 -1.0
195 1468 -1.0
196 1322 -1.0
196 1397 -1.0
196 1474 -1.0
197 1328 -1.0
197 1403 -1.0
197 1480 -1.0
198 1334 -1.0
198 1409 -1.0
198 1486 -1.0
199 1340 -1.0
199 1415 -1.0
199 1492 -1.0
200 1346 -1.0
200 1421 -1.0
200 1498 -1.0
201 1352 -1.0
201 1427 -1.0
201 1504 -1.0
202 1358 -1.0
202 1433 -1.0
202 1510 -1.0
203 1364 -1.0
203 1439 -1.0
203 1516 -1.0
204 1369 1.0
204 1444 1.0
204 1521 1.0
205 1594 1.0
205 1675 1.0
205 1758 1.0
206 1837 1.0
206 1924 1.0
206 2013 1.0
207 2098 1.0
207 2191 1.0
207 2286 1.0
208 1523 -1.0
208 1604 -1.0
208 1687 -1.0
209 1529 -1.0
209 1610 -1.0
209 1693 -1.0
210 1535 -1.0
210 1616 -1.0
210 1699 -1.0
211 1541 -1.0
211 1622 -1.0
211 1705 -1.0
212 1547 -1.0
212 1628 -1.0
212 1711 -1.0
213 1553 -1.0
213 1634 -1.0
213 1717 -1.0
214 1559 -1.0
214 1640 -1.0
214 1723 -1.0
215 1565 -1.0
215 1646 -1.0
215 1729 -1.0
216 1571 -1.0
216 1652 -1.0
216 1735 -1.0
217 1577 -1.0
217 1658 -1.0
217 1741 -1.0
218 1583 -1.0
218 1664 -1.0
218 1747 -1.0
219 1589 -1.0
219 1670 -1.0
219 1753 -1.0
220 1595 -1.0
220 1676 -1.0
220 1759 -1.0
221 1600 1.0
221 1681 1.0
221 1764 1.0
222 1843 1.0
222 1930 1.0
222 2019 1.0
223 2104 1.0
223 2197 1.0
223 2292 1.0
224 1766 -1.0
224 1853 -1.0
224 1942 -1.0
225 1772 -1.0
225 1859 -1.0
225 1948 -1.0
226 1778 -1.0
226 1865 -1.0
226 1954 -1.0
227 1784 -1.0
227 1871 -1.0
227 1960 -1.0
228 1790 -1.0
228 1877 -1.0
228 1966 -1.0
229 1796 -1.0
229 1883 -1.0
229 1972 -1.0
230 1802 -1.0
230 1889 -1.0
230 1978 -1.0
231 1808 -1.0
231 1895 -1.0
231 1984 -1.0
232 1814 -1.0
232 1901 -1.0
232 1990 -1.0
233 1820 -1.0
233 1907 -1.0
233 1996 -1.0
234 1826 -1.0
234 1913 -1.0
234 2002 -1.0
235 1832 -1.0
235 1919 -1.0
235 2008 -1.0
236 1838 -1.0
236 1925 -1.0
236 2014 -1.0
237 1844 -1.0
237 1931 -1.0
237 2020 -1.0
238 1849 1.0
238 1936 1.0
238 2025 1.0
239 2110 1.0
239 2203 1.0
239 2298 1.0
240 2027 -1.0
240 2120 -1.0
240 2215 -1.0
241 2033 -1.0
241 2126 -1.0
241 2221 -1.0
242 2039 -1.0
242 2132 -1.0
242 2227 -1.0
243 2045 -1.0
243 2138 -1.0
243 2233 -1.0
244 2051 -1.0
244 2144 -1.0
244 2239 -1.0
245 2057 -1.0
245 2150 -1.0
245 2245 -1.0
246 2063 -1.0
246 2156 -1.0
246 2251 -1.0
247 2069 -1.0
247 2162 -1.0
247 2257 -1.0
248 2075 -1.0
248 2168 -1.0
248 2263 -1.0
249 2081 -1.0
249 2174 -1.0
249 2269 -1.0
250 2087 -1.0
250 2180 -1.0
250 2275 -1.0
251 2093 -1.0
251 2186 -1.0
251 2281 -1.0
252 2099 -1.0
252 2192 -1.0
252 2287 -1.0
253 2105 -1.0
253 2198 -1.0
253 2293 -1.0
254 2111 -1.0
254 2204 -1.0
254 2299 -1.0
255 2116 1.0
255 2209 1.0
255 2304 1.0
256 1 1.0
256 4 1.0
256 9 1.0
256 16 1.0
256 25 1.0
256 36 1.0
256 49 1.0
256 64 1.0
256 81 1.0
256 100 1.0
256 121 1.0
256 144 1.0
256 169 1.0
256 196 1.0
256 225 1.0
256 256 1.0
256 289 1.0
256 324 1.0
256 361 1.0
256 400 1.0
256 441 1.0
256 484 1.0
256 529 1.0
256 576 1.0
256 625 1.0
256 676 1.0
256 729 1.0
256 784 1.0
256 841 1.0
256 900 1.0
256 961 1.0
256 1024 1.0
256 1089 1.0
256 1156 1.0
256 1225 1.0
256 1296 1.0
256 1369 1.0
256 1444 1.0
256 1521 1.0
256 1600 1.0
256 1681 1.0
256 1764 1.0
256 1849 1.0
256 1936 1.0
256 2025 1.0
256 2116 1.0
256 2209 1.0
256 2304 1.0
257 1 1.0
258 4 1.0
259 9 1.0
260 16 1.0
261 25 1.0
262 36 1.0
263 49 1.0
264 64 1.0
265 81 1.0
266 100 1.0
267 121 1.0
268 144 1.0
269 169 1.0
270 196 1.0
271 225 1.0
272 256 1.0
273 289 1.0
274 324 1.0
275 361 1.0
276 400 1.0
277 441 1.0
278 484 1.0
279 529 1.0
280 576 1.0
281 625 1.0
282 676 1.0
283 729 1.0
284 784 1.0
285 841 1.0
286 900 1.0
287 961 1.0
288 1024 1.0
289 1089 1.0
290 1156 1.0
291 1225 1.0
292 1296 1.0
293 1369 1.0
294 1444 1.0
295 1521 1.0
296 1600 1.0
297 1681 1.0
298 1764 1.0
299 1849 1.0
300 1936 1.0
301 2025 1.0
302 2116 1.0
303 2209 1.0
304 2304 1.0

BCOORD
129
0 0.0025000000000000005
2 0.007500000000000001
3 0.007500000000000001
8 0.007500000000000001
10 0.015909902576697322
11 0.015909902576697322
12 0.007500000000000001
14 0.015909902576697322
15 0.015909902576697322
17 0.0025000000000000005
18 0.007500000000000001
19 -0.007500000000000001
25 0.007500000000000001
26 0.015909902576697322
27 -0.015909902576697322
29 0.007500000000000001
30 0.015909902576697322
31 -0.015909902576697322
34 0.022499999999999996
40 0.015909902576697322
41 0.015909902576697322
42 0.06749999999999999
44 0.015909902576697322
45 0.015909902576697322
46 0.06749999999999999
51 0.022499999999999996
56 0.015909902576697322
57 -0.015909902576697322
59 0.06749999999999999
60 0.015909902576697322
61 -0.015909902576697322
63 0.06749999999999999
68 0.0025000000000000005
70 0.007500000000000001
71 0.007500000000000001
72 0.007500000000000001
74 0.015909902576697322
75 0.015909902576697322
76 -0.007500000000000001
78 -0.015909902576697322
79 -0.015909902576697322
85 0.0025000000000000005
86 0.007500000000000001
87 -0.007500000000000001
89 0.007500000000000001
90 0.015909902576697322
91 -0.015909902576697322
93 -0.007500000000000001
94 -0.015909902576697322
95 0.015909902576697322
102 0.022499999999999996
104 0.015909902576697322
105 0.015909902576697322
106 0.06749999999999999
108 -0.015909902576697322
109 -0.015909902576697322
110 -0.06749999999999999
119 0.022499999999999996
120 0.015909902576697322
121 -0.015909902576697322
123 0.06749999999999999
124 -0.015909902576697322
125 0.015909902576697322
127 -0.06749999999999999
136 0.022499999999999996
138 0.06749999999999999
139 0.06749999999999999
153 0.022499999999999996
154 0.06749999999999999
155 -0.06749999999999999
170 0.2024999999999999
187 0.2024999999999999
204 0.022499999999999996
206 0.06749999999999999
207 0.06749999999999999
221 0.022499999999999996
222 0.06749999999999999
223 -0.06749999999999999
238 0.2024999999999999
255 0.2024999999999999
256 1.0
257 0.00011875000000000003
258 0.00011875000000000003
259 0.0022625000000000015
260 0.0011312500000000005
261 0.0011312500000000005
262 0.00023750000000000062
263 0.005625
264 0.005625
265 0.011250000000000003
266 0.005625
267 0.005625
268 0.011250000000000003
269 0.0011312500000000005
270 0.0011312500000000005
271 0.00023750000000000062
272 0.00011875000000000003
273 0.00011875000000000003
274 0.0022625000000000015
275 0.005625
276 0.005625
277 0.011250000000000003
278 0.005625
279 0.005625
280 0.011250000000000003
281 0.005624999999999998
282 0.005624999999999998
283 0.01125
284 0.005624999999999998
285 0.005624999999999998
286 0.01125
287 0.09163124999999997
288 0.009618750000000006
289 0.10125000000000003
290 0.009618750000000006
291 0.09163124999999997
292 0.10125000000000003
293 0.005624999999999998
294 0.005624999999999998
295 0.01125
296 0.005624999999999998
297 0.005624999999999998
298 0.01125
299 0.009618750000000006
300 0.09163124999999997
301 0.10125000000000003
302 0.09163124999999997
303 0.009618750000000006
304 0.10125000000000003
